(set-logic QF_LIA)
(declare-fun x0 () Int)
(declare-fun x1 () Int)
(declare-fun x2 () Int)
(declare-fun x3 () Int)
(declare-fun x4 () Int)
(declare-fun x5 () Int)
(declare-fun x6 () Int)
(declare-fun x7 () Int)
(declare-fun x8 () Int)
(declare-fun x9 () Int)
(declare-fun A0 () Bool)
(declare-fun A1 () Bool)
(declare-fun A2 () Bool)
(declare-fun A3 () Bool)
(declare-fun A4 () Bool)
(declare-fun A5 () Bool)
(declare-fun A6 () Bool)
(declare-fun A7 () Bool)
(declare-fun A9 () Bool)
(assert (let ((.def_0 (* (- 1) x1))) (let ((.def_1 (< .def_0 1))) (let ((.def_2 (or A2 .def_1))) (let ((.def_3 (not .def_2))) (let ((.def_4 (* 1 x6))) (let ((.def_5 (< .def_4 (- 1)))) (let ((.def_6 (not .def_5))) (let ((.def_7 (* (- 1) x0))) (let ((.def_8 (< .def_7 (- 1)))) (let ((.def_9 (and .def_8 .def_6))) (let ((.def_10 (not .def_9))) (let ((.def_11 (or .def_10 .def_3))) (let ((.def_12 (not .def_11))) (let ((.def_13 (* 1 x8))) (let ((.def_14 (< .def_13 (- 1)))) (let ((.def_15 (not .def_14))) (let ((.def_16 (not A0))) (let ((.def_17 (= .def_16 .def_15))) (let ((.def_18 (* 1 x1))) (let ((.def_19 (< .def_18 1))) (let ((.def_20 (not .def_19))) (let ((.def_21 (or .def_20 A3))) (let ((.def_22 (and .def_21 .def_17))) (let ((.def_23 (= .def_22 .def_12))) (let ((.def_24 (not .def_23))) (let ((.def_25 (not A4))) (let ((.def_26 (* (- 1) x9))) (let ((.def_27 (< .def_26 (- 1)))) (let ((.def_28 (not .def_27))) (let ((.def_29 (and .def_28 .def_25))) (let ((.def_30 (not .def_29))) (let ((.def_31 (< .def_18 (- 1)))) (let ((.def_32 (not .def_31))) (let ((.def_33 (* (- 1) x5))) (let ((.def_34 (* (- 1) x2))) (let ((.def_35 (+ .def_34 .def_33))) (let ((.def_36 (< .def_35 (- 1)))) (let ((.def_37 (not .def_36))) (let ((.def_38 (or .def_37 .def_32))) (let ((.def_39 (not .def_38))) (let ((.def_40 (or .def_39 .def_30))) (let ((.def_41 (= A6 A3))) (let ((.def_42 (* 1 x7))) (let ((.def_43 (< .def_42 (- 1)))) (let ((.def_44 (not .def_43))) (let ((.def_45 (and .def_44 A2))) (let ((.def_46 (and .def_45 .def_41))) (let ((.def_47 (and .def_46 .def_40))) (let ((.def_48 (or .def_47 .def_24))) (let ((.def_49 (not A1))) (let ((.def_50 (not A2))) (let ((.def_51 (or .def_50 .def_49))) (let ((.def_52 (not .def_51))) (let ((.def_53 (* (- 1) x4))) (let ((.def_54 (* (- 1) x8))) (let ((.def_55 (+ .def_54 .def_53))) (let ((.def_56 (< .def_55 1))) (let ((.def_57 (or .def_56 A5))) (let ((.def_58 (not .def_57))) (let ((.def_59 (or .def_58 .def_52))) (let ((.def_60 (or .def_14 A9))) (let ((.def_61 (not .def_60))) (let ((.def_62 (< .def_13 1))) (let ((.def_63 (not .def_62))) (let ((.def_64 (or .def_63 A4))) (let ((.def_65 (not .def_64))) (let ((.def_66 (and .def_65 .def_61))) (let ((.def_67 (or .def_66 .def_59))) (let ((.def_68 (< .def_54 (- 1)))) (let ((.def_69 (and A7 .def_68))) (let ((.def_70 (not .def_69))) (let ((.def_71 (* 1 x2))) (let ((.def_72 (< .def_71 (- 1)))) (let ((.def_73 (and A9 .def_72))) (let ((.def_74 (and .def_73 .def_70))) (let ((.def_75 (not .def_74))) (let ((.def_76 (not A7))) (let ((.def_77 (and .def_76 .def_19))) (let ((.def_78 (not .def_77))) (let ((.def_79 (* 1 x9))) (let ((.def_80 (+ .def_79 .def_54))) (let ((.def_81 (< .def_80 1))) (let ((.def_82 (or .def_81 .def_68))) (let ((.def_83 (and .def_82 .def_78))) (let ((.def_84 (or .def_83 .def_75))) (let ((.def_85 (or .def_84 .def_67))) (let ((.def_86 (or .def_85 .def_48))) (let ((.def_87 (<= x9 1))) (let ((.def_88 (<= 0 x9))) (let ((.def_89 (<= x8 1))) (let ((.def_90 (<= 0 x8))) (let ((.def_91 (<= x7 1))) (let ((.def_92 (<= 0 x7))) (let ((.def_93 (<= x6 1))) (let ((.def_94 (<= 0 x6))) (let ((.def_95 (<= x5 1))) (let ((.def_96 (<= 0 x5))) (let ((.def_97 (<= x4 1))) (let ((.def_98 (<= 0 x4))) (let ((.def_99 (<= x3 1))) (let ((.def_100 (<= 0 x3))) (let ((.def_101 (<= x2 1))) (let ((.def_102 (<= 0 x2))) (let ((.def_103 (<= x1 1))) (let ((.def_104 (<= 0 x1))) (let ((.def_105 (<= x0 1))) (let ((.def_106 (<= 0 x0))) (let ((.def_107 (and .def_106 .def_105 .def_104 .def_103 .def_102 .def_101 .def_100 .def_99 .def_98 .def_97 .def_96 .def_95 .def_94 .def_93 .def_92 .def_91 .def_90 .def_89 .def_88 .def_87 .def_86))) .def_107)))))))))))))))))))))))))))))))))))))))))))))))))))))))))))))))))))))))))))))))))))))))))))))))))))))))))))))
(check-sat)
